\ENCODING=ISO-8859-1
\Problem name: ilog.cplex

Minimize
 obj: x1
Subject To
 c1:  20 z00 + 30 z01 + 40 z02 + 50 z03 + 20 z10 + 30 z11 + 40 z12 + 50 z13
      + 20 z20 + 30 z21 + 40 z22 + 50 z23 + 20 z30 + 30 z31 + 40 z32 + 50 z33
      + 20 z40 + 30 z41 + 40 z42 + 50 z43 + 20 z50 + 30 z51 + 40 z52 + 50 z53
      + 20 z60 + 30 z61 + 40 z62 + 50 z63 + 20 z70 + 30 z71 + 40 z72 + 50 z73
      + 20 z80 + 30 z81 + 40 z82 + 50 z83 + 20 z90 + 30 z91 + 40 z92 + 50 z93
      <= 100
 c2:  x0 + x1 + x2 + x3 + x4 + x5 + x6 + x7 + x8 + x9 <= 2
 c3:  z00 + z01 + z02 + z03 - x0 <= 0
 c4:  z10 + z11 + z12 + z13 - x1 <= 0
 c5:  z20 + z21 + z22 + z23 - x2 <= 0
 c6:  z30 + z31 + z32 + z33 - x3 <= 0
 c7:  z40 + z41 + z42 + z43 - x4 <= 0
 c8:  z50 + z51 + z52 + z53 - x5 <= 0
 c9:  z60 + z61 + z62 + z63 - x6 <= 0
 c10: z70 + z71 + z72 + z73 - x7 <= 0
 c11: z80 + z81 + z82 + z83 - x8 <= 0
 c12: z90 + z91 + z92 + z93 - x9 <= 0
Bounds
 0 <= x1 <= 1
 0 <= z00 <= 1
 0 <= z01 <= 1
 0 <= z02 <= 1
 0 <= z03 <= 1
 0 <= z10 <= 1
 0 <= z11 <= 1
 0 <= z12 <= 1
 0 <= z13 <= 1
 0 <= z20 <= 1
 0 <= z21 <= 1
 0 <= z22 <= 1
 0 <= z23 <= 1
 0 <= z30 <= 1
 0 <= z31 <= 1
 0 <= z32 <= 1
 0 <= z33 <= 1
 0 <= z40 <= 1
 0 <= z41 <= 1
 0 <= z42 <= 1
 0 <= z43 <= 1
 0 <= z50 <= 1
 0 <= z51 <= 1
 0 <= z52 <= 1
 0 <= z53 <= 1
 0 <= z60 <= 1
 0 <= z61 <= 1
 0 <= z62 <= 1
 0 <= z63 <= 1
 0 <= z70 <= 1
 0 <= z71 <= 1
 0 <= z72 <= 1
 0 <= z73 <= 1
 0 <= z80 <= 1
 0 <= z81 <= 1
 0 <= z82 <= 1
 0 <= z83 <= 1
 0 <= z90 <= 1
 0 <= z91 <= 1
 0 <= z92 <= 1
 0 <= z93 <= 1
 0 <= x0 <= 1
 0 <= x1 <= 1
 0 <= x2 <= 1
 0 <= x3 <= 1
 0 <= x4 <= 1
 0 <= x5 <= 1
 0 <= x6 <= 1
 0 <= x7 <= 1
 0 <= x8 <= 1
 0 <= x9 <= 1
Binaries
 z00  z01  z02  z03  z10  z11  z12  z13  z20  z21  z22  z23  z30  z31  z32 
 z33  z40  z41  z42  z43  z50  z51  z52  z53  z60  z61  z62  z63  z70  z71 
 z72  z73  z80  z81  z82  z83  z90  z91  z92  z93  x0  x1  x2  x3  x4  x5  x6 
 x7  x8  x9 
End
