\ENCODING=ISO-8859-1
\Problem name: ilog.cplex

Minimize
 obj: x1
Subject To
 c1:  x2 + x3 + x4 + x5 + x6 + x7 + x8 + x9 + x10 + x11 + x12 + x13 + x14 + x15
      + x16 + x17 + x18 + x19 + x20 + x21 <= 200
 c2:  x22 + x23 + x24 + x25 + x26 + x27 + x28 + x29 + x30 + x31 + x32 + x33
      + x34 + x35 + x36 + x37 + x38 + x39 + x40 + x41 <= 4
 c3:  x2 - 50 x22 <= 0
 c4:  x3 - 50 x23 <= 0
 c5:  x4 - 50 x24 <= 0
 c6:  x5 - 50 x25 <= 0
 c7:  x6 - 50 x26 <= 0
 c8:  x7 - 50 x27 <= 0
 c9:  x8 - 50 x28 <= 0
 c10: x9 - 50 x29 <= 0
 c11: x10 - 50 x30 <= 0
 c12: x11 - 50 x31 <= 0
 c13: x12 - 50 x32 <= 0
 c14: x13 - 50 x33 <= 0
 c15: x14 - 50 x34 <= 0
 c16: x15 - 50 x35 <= 0
 c17: x16 - 50 x36 <= 0
 c18: x17 - 50 x37 <= 0
 c19: x18 - 50 x38 <= 0
 c20: x19 - 50 x39 <= 0
 c21: x20 - 50 x40 <= 0
 c22: x21 - 50 x41 <= 0
 c23: x2 - 20 x22 >= 0
 c24: x3 - 20 x23 >= 0
 c25: x4 - 20 x24 >= 0
 c26: x5 - 20 x25 >= 0
 c27: x6 - 20 x26 >= 0
 c28: x7 - 20 x27 >= 0
 c29: x8 - 20 x28 >= 0
 c30: x9 - 20 x29 >= 0
 c31: x10 - 20 x30 >= 0
 c32: x11 - 20 x31 >= 0
 c33: x12 - 20 x32 >= 0
 c34: x13 - 20 x33 >= 0
 c35: x14 - 20 x34 >= 0
 c36: x15 - 20 x35 >= 0
 c37: x16 - 20 x36 >= 0
 c38: x17 - 20 x37 >= 0
 c39: x18 - 20 x38 >= 0
 c40: x19 - 20 x39 >= 0
 c41: x20 - 20 x40 >= 0
 c42: x21 - 20 x41 >= 0
Bounds
 0 <= x1 <= 1
 0 <= x2 <= 50
 0 <= x3 <= 50
 0 <= x4 <= 50
 0 <= x5 <= 50
 0 <= x6 <= 50
 0 <= x7 <= 50
 0 <= x8 <= 50
 0 <= x9 <= 50
 0 <= x10 <= 50
 0 <= x11 <= 50
 0 <= x12 <= 50
 0 <= x13 <= 50
 0 <= x14 <= 50
 0 <= x15 <= 50
 0 <= x16 <= 50
 0 <= x17 <= 50
 0 <= x18 <= 50
 0 <= x19 <= 50
 0 <= x20 <= 50
 0 <= x21 <= 50
 0 <= x22 <= 1
 0 <= x23 <= 1
 0 <= x24 <= 1
 0 <= x25 <= 1
 0 <= x26 <= 1
 0 <= x27 <= 1
 0 <= x28 <= 1
 0 <= x29 <= 1
 0 <= x30 <= 1
 0 <= x31 <= 1
 0 <= x32 <= 1
 0 <= x33 <= 1
 0 <= x34 <= 1
 0 <= x35 <= 1
 0 <= x36 <= 1
 0 <= x37 <= 1
 0 <= x38 <= 1
 0 <= x39 <= 1
 0 <= x40 <= 1
 0 <= x41 <= 1
Binaries
 x22  x23  x24  x25  x26  x27  x28  x29  x30  x31  x32  x33  x34  x35  x36 
 x37  x38  x39  x40  x41 
End
