\ENCODING=ISO-8859-1
\Problem name: ilog.cplex

Minimize
 obj: x1
Subject To
 c1:  20 w00 + 30 w01 + 40 w02 + 50 w03 + 20 w10 + 30 w11 + 40 w12 + 50 w13
      + 20 w20 + 30 w21 + 40 w22 + 50 w23 + 20 w30 + 30 w31 + 40 w32 + 50 w33
      + 20 w40 + 30 w41 + 40 w42 + 50 w43 + 20 w50 + 30 w51 + 40 w52 + 50 w53
      + 20 w60 + 30 w61 + 40 w62 + 50 w63 + 20 w70 + 30 w71 + 40 w72 + 50 w73
      + 20 w80 + 30 w81 + 40 w82 + 50 w83 + 20 w90 + 30 w91 + 40 w92 + 50 w93
      <= 100
 c2:  y0 + y1 + y2 + y3 + y4 + y5 + y6 + y7 + y8 + y9 <= 2
 c3:  w00 + w01 + w02 + w03 - y0 <= 0
 c4:  w10 + w11 + w12 + w13 - y1 <= 0
 c5:  w20 + w21 + w22 + w23 - y2 <= 0
 c6:  w30 + w31 + w32 + w33 - y3 <= 0
 c7:  w40 + w41 + w42 + w43 - y4 <= 0
 c8:  w50 + w51 + w52 + w53 - y5 <= 0
 c9:  w60 + w61 + w62 + w63 - y6 <= 0
 c10: w70 + w71 + w72 + w73 - y7 <= 0
 c11: w80 + w81 + w82 + w83 - y8 <= 0
 c12: w90 + w91 + w92 + w93 - y9 <= 0
 c13: y0 <= 0
 c14: y1 <= 1
 c15: y2 <= 1
 c16: y3 <= 0
 c17: y4 <= 1
 c18: y5 <= 1
 c19: y6 <= 1
 c20: y7 <= 1
 c21: y8 <= 1
 c22: y9 <= 1
 c23: - 0.354773869346734 w00 - 0.5321608040201 w01 - 0.709547738693467 w02
      - 0.886934673366834 w03 - 0.136451488210282 w10 - 0.204677232315423 w11
      - 0.272902976420564 w12 - 0.341128720525705 w13 - 8.86934673366834 w20
      - 13.3040201005025 w21 - 17.7386934673367 w22 - 22.1733668341709 w23
      - 0.0452261306532663 w30 - 0.0678391959798995 w31
      - 0.0904522613065327 w32 - 0.113065326633166 w33 - 0.0523436856413214 w40
      - 0.078515528461982 w41 - 0.104687371282643 w42 - 0.130859214103303 w43
      - 0.0407265921443955 w50 - 0.0610898882165932 w51
      - 0.0814531842887909 w52 - 0.101816480360989 w53 - 79.8241206030151 w60
      - 119.736180904523 w61 - 159.64824120603 w62 - 199.560301507538 w63
      - 0.18826443538447 w70 - 0.282396653076704 w71 - 0.376528870768939 w72
      - 0.470661088461174 w73 - 0.105447979660522 w80 - 0.158171969490783 w81
      - 0.210895959321044 w82 - 0.263619949151305 w83 - 0.269676083118294 w90
      - 0.404514124677441 w91 - 0.539352166236588 w92 - 0.674190207795735 w93
      + b0  = 1
 c24: - 0.346842878120411 w00 - 0.520264317180617 w01 - 0.693685756240822 w02
      - 0.867107195301028 w03 - 0.0522719075268896 w10 - 0.0784078612903344 w11
      - 0.104543815053779 w12 - 0.130679768817224 w13 - 0.108801665406923 w20
      - 0.163202498110384 w21 - 0.217603330813845 w22 - 0.272004163517307 w23
      - 0.0531571218795888 w30 - 0.0797356828193833 w31 - 0.106314243759178 w32
      - 0.132892804698972 w33 - 0.0642564595084897 w40 - 0.0963846892627345 w41
      - 0.128512919016979 w42 - 0.160641148771224 w43 - 0.0330761648787115 w50
      - 0.0496142473180672 w51 - 0.066152329757423 w52 - 0.0826904121967787 w53
      - 0.141075417842235 w60 - 0.211613126763352 w61 - 0.282150835684469 w62
      - 0.352688544605587 w63 - 0.130245977053515 w70 - 0.195368965580273 w71
      - 0.260491954107031 w72 - 0.325614942633788 w73 - 0.071911295463682 w80
      - 0.107866943195523 w81 - 0.143822590927364 w82 - 0.179778238659205 w83
      - 0.0529330193421538 w90 - 0.0793995290132307 w91 - 0.105866038684308 w92
      - 0.132332548355385 w93 + b1  = 1
 c25: - 0.203873598369011 w00 - 0.305810397553517 w01 - 0.407747196738022 w02
      - 0.509683995922528 w03 - 0.763137749536921 w10 - 1.14470662430538 w11
      - 1.52627549907384 w12 - 1.9078443738423 w13 - 0.205798952393482 w20
      - 0.308698428590224 w21 - 0.411597904786965 w22 - 0.514497380983706 w23
      - 0.196126401630989 w30 - 0.294189602446483 w31 - 0.392252803261978 w32
      - 0.490316004077472 w33 - 0.199113098102527 w40 - 0.29866964715379 w41
      - 0.398226196205053 w42 - 0.497782745256317 w43 - 0.382685661719002 w50
      - 0.574028492578504 w51 - 0.765371323438005 w52 - 0.956714154297506 w53
      - 0.203873598369011 w60 - 0.305810397553517 w61 - 0.407747196738022 w62
      - 0.509683995922528 w63 - 0.298745470877363 w70 - 0.448118206316044 w71
      - 0.597490941754726 w72 - 0.746863677193407 w73 - 0.411166460442325 w80
      - 0.616749690663487 w81 - 0.822332920884649 w82 - 1.02791615110581 w83
      - 0.494644140305142 w90 - 0.741966210457713 w91 - 0.989288280610284 w92
      - 1.23661035076285 w93 + b2  = 1
 c26: - 0.0773946360153257 w00 - 0.116091954022989 w01 - 0.154789272030651 w02
      - 0.193486590038314 w03 - 0.0361633093922887 w10 - 0.054244964088433 w11
      - 0.0723266187845774 w12 - 0.0904082734807217 w13
      - 0.0228013588260687 w20 - 0.034202038239103 w21 - 0.0456027176521373 w22
      - 0.0570033970651716 w23 - 0.322605363984674 w30 - 0.483908045977011 w31
      - 0.645210727969349 w32 - 0.806513409961686 w33 - 0.614776259668908 w40
      - 0.922164389503362 w41 - 1.22955251933782 w42 - 1.53694064917227 w43
      - 0.0614776259668908 w50 - 0.0922164389503362 w51 - 0.122955251933782 w52
      - 0.153694064917227 w53 - 0.0268616172814939 w60 - 0.0402924259222409 w61
      - 0.0537232345629878 w62 - 0.0671540432037348 w63 - 0.103767967396344 w70
      - 0.155651951094516 w71 - 0.207535934792689 w72 - 0.259419918490861 w73
      - 0.0978472725599162 w80 - 0.146770908839874 w81 - 0.195694545119832 w82
      - 0.244618181399791 w83 - 0.022471132249967 w90 - 0.0337066983749505 w91
      - 0.0449422644999339 w92 - 0.0561778306249174 w93 + b3  = 1
 c27: - 0.346699266503668 w00 - 0.520048899755501 w01 - 0.693398533007335 w02
      - 0.866748166259169 w03 - 0.059606025313722 w10 - 0.089409037970583 w11
      - 0.119212050627444 w12 - 0.149015063284305 w13 - 0.151160880195599 w20
      - 0.226741320293399 w21 - 0.302321760391198 w22 - 0.377902200488998 w23
      - 0.0533007334963325 w30 - 0.0799511002444988 w31 - 0.106601466992665 w32
      - 0.133251833740831 w33 - 0.0634064094780197 w40 - 0.0951096142170296 w41
      - 0.126812818956039 w42 - 0.158516023695049 w43 - 0.0353014666500698 w50
      - 0.0529521999751047 w51 - 0.0706029333001397 w52
      - 0.0882536666251746 w53 - 0.19580424895803 w60 - 0.293706373437045 w61
      - 0.39160849791606 w62 - 0.489510622395075 w63 - 0.133770690438583 w70
      - 0.200656035657875 w71 - 0.267541380877166 w72 - 0.334426726096458 w73
      - 0.0755804400977995 w80 - 0.113370660146699 w81 - 0.151160880195599 w82
      - 0.188951100244499 w83 - 0.0648759142470382 w90 - 0.0973138713705573 w91
      - 0.129751828494076 w92 - 0.162189785617596 w93 + b4  = 1
 c28: - 0.230489192263936 w00 - 0.345733788395904 w01 - 0.460978384527873 w02
      - 0.576222980659841 w03 - 1.07321530147895 w10 - 1.60982295221843 w11
      - 2.14643060295791 w12 - 2.68303825369738 w13 - 0.268303825369738 w20
      - 0.402455738054608 w21 - 0.536607650739477 w22 - 0.670759563424346 w23
      - 0.169510807736064 w30 - 0.254266211604096 w31 - 0.339021615472127 w32
      - 0.423777019340159 w33 - 0.177025204367662 w40 - 0.265537806551494 w41
      - 0.354050408735325 w42 - 0.442563010919156 w43 - 0.288838432694083 w50
      - 0.433257649041125 w51 - 0.577676865388167 w52 - 0.722096081735208 w53
      - 0.259779800660564 w60 - 0.389669700990845 w61 - 0.519559601321127 w62
      - 0.649449501651409 w63 - 0.331175406435164 w70 - 0.496763109652746 w71
      - 0.662350812870328 w72 - 0.82793851608791 w73 - 0.418815727406421 w80
      - 0.628223591109631 w81 - 0.837631454812842 w82 - 1.04703931851605 w83
      - 0.847972583884605 w90 - 1.27195887582691 w91 - 1.69594516776921 w92
      - 2.11993145971151 w93 + b5  = 1
 c29: - 0.0645502645502645 w00 - 0.0968253968253968 w01 - 0.129100529100529 w02
      - 0.161375661375661 w03 - 0.0965209144454427 w10 - 0.144781371668164 w11
      - 0.193041828890885 w12 - 0.241302286113607 w13 - 0.0276519376519377 w20
      - 0.0414779064779065 w21 - 0.0553038753038753 w22
      - 0.0691298441298441 w23 - 0.335449735449735 w30 - 0.503174603174603 w31
      - 0.670899470899471 w32 - 0.838624338624339 w33 - 0.352800583835067 w40
      - 0.5292008757526 w41 - 0.705601167670133 w42 - 0.882001459587666 w43
      - 0.62961334961335 w50 - 0.944420024420024 w51 - 1.2592266992267 w52
      - 1.57403337403337 w53 - 0.0311452570204473 w60 - 0.0467178855306709 w61
      - 0.0622905140408946 w62 - 0.0778631425511182 w63 - 0.14564009866501 w70
      - 0.218460147997515 w71 - 0.291280197330019 w72 - 0.364100246662524 w73
      - 0.409248677248677 w80 - 0.613873015873016 w81 - 0.818497354497355 w82
      - 1.02312169312169 w83 - 0.0399267002193831 w90 - 0.0598900503290747 w91
      - 0.0798534004387663 w92 - 0.0998167505484579 w93 + b6  = 1
 c30: - 0.275621890547264 w00 - 0.413432835820896 w01 - 0.551243781094527 w02
      - 0.689054726368159 w03 - 0.0810652619256658 w10 - 0.121597892888499 w11
      - 0.162130523851332 w12 - 0.202663154814164 w13 - 0.0452729780793797 w20
      - 0.0679094671190696 w21 - 0.0905459561587594 w22 - 0.113182445198449 w23
      - 0.124378109452736 w30 - 0.186567164179104 w31 - 0.248756218905473 w32
      - 0.310945273631841 w33 - 0.18623100712653 w40 - 0.279346510689794 w41
      - 0.372462014253059 w42 - 0.465577517816324 w43 - 0.0640385433427657 w50
      - 0.0960578150141486 w51 - 0.128077086685531 w52 - 0.160096358356914 w53
      - 0.0562034850218727 w60 - 0.084305227532809 w61 - 0.112406970043745 w62
      - 0.140508712554682 w63 - 0.689054726368159 w70 - 1.03358208955224 w71
      - 1.37810945273632 w72 - 1.7226368159204 w73 - 0.304891471844318 w80
      - 0.457337207766477 w81 - 0.609782943688636 w82 - 0.762228679610796 w83
      - 0.0456932842419204 w90 - 0.0685399263628805 w91
      - 0.0913865684838407 w92 - 0.114233210604801 w93 + b7  = 1
 c31: - 0.122488038277512 w00 - 0.183732057416268 w01 - 0.244976076555024 w02
      - 0.30622009569378 w03 - 0.284172248803828 w10 - 0.426258373205742 w11
      - 0.568344497607655 w12 - 0.710430622009569 w13 - 0.0564730224172949 w20
      - 0.0847095336259423 w21 - 0.11294604483459 w22 - 0.141182556043237 w23
      - 0.277511961722488 w30 - 0.416267942583732 w31 - 0.555023923444976 w32
      - 0.69377990430622 w33 - 0.303602829918619 w40 - 0.455404244877929 w41
      - 0.607205659837239 w42 - 0.759007074796549 w43 - 0.732402703102649 w50
      - 1.09860405465397 w51 - 1.4648054062053 w52 - 1.83100675775662 w53
      - 0.0632055713531645 w60 - 0.0948083570297468 w61 - 0.126411142706329 w62
      - 0.158013928382911 w63 - 0.315746943115364 w70 - 0.473620414673046 w71
      - 0.631493886230728 w72 - 0.78936735778841 w73 - 1.42086124401914 w80
      - 2.13129186602871 w81 - 2.84172248803828 w82 - 3.55215311004785 w83
      - 0.093354878056448 w90 - 0.140032317084672 w91 - 0.186709756112896 w92
      - 0.23338719514112 w93 + b8  = 1
 c32: - 0.319489981785064 w00 - 0.479234972677596 w01 - 0.638979963570128 w02
      - 0.79872495446266 w03 - 0.608683499780165 w10 - 0.913025249670247 w11
      - 1.21736699956033 w12 - 1.52170874945041 w13 - 1.03834244080146 w20
      - 1.55751366120219 w21 - 2.07668488160291 w22 - 2.59585610200364 w23
      - 0.0805100182149363 w30 - 0.120765027322404 w31 - 0.161020036429873 w32
      - 0.201275045537341 w33 - 0.0907548662911299 w40 - 0.136132299436695 w41
      - 0.18150973258226 w42 - 0.226887165727825 w43 - 0.0909301815511901 w50
      - 0.136395272326785 w51 - 0.18186036310238 w52 - 0.227325453877975 w53
      - 0.871694888574063 w60 - 1.30754233286109 w61 - 1.74338977714813 w62
      - 2.17923722143516 w63 - 0.332269581056466 w70 - 0.498404371584699 w71
      - 0.664539162112933 w72 - 0.830673952641166 w73 - 0.243473399912066 w80
      - 0.365210099868099 w81 - 0.486946799824132 w82 - 0.608683499780165 w83
      - 8.30673952641166 w90 - 12.4601092896175 w91 - 16.6134790528233 w92
      - 20.7668488160291 w93 + b9  = 1
 c33: - 0.243451272501552 w00 - 0.365176908752328 w01 - 0.486902545003104 w02
      - 0.60862818125388 w03 - 1.27382595279858 w10 - 1.91073892919786 w11
      - 2.54765190559715 w12 - 3.18456488199644 w13 - 0.304253770688263 w20
      - 0.456380656032394 w21 - 0.608507541376525 w22 - 0.760634426720656 w23
      - 0.156548727498448 w30 - 0.234823091247672 w31 - 0.313097454996896 w32
      - 0.39137181874612 w33 - 0.165672992242017 w40 - 0.248509488363025 w41
      - 0.331345984484033 w42 - 0.414182480605042 w43 - 0.251632831659391 w50
      - 0.377449247489086 w51 - 0.503265663318782 w52 - 0.629082079148477 w53
      - 0.291540412748772 w60 - 0.437310619123158 w61 - 0.583080825497544 w62
      - 0.72885103187193 w63 - 0.34727607989192 w70 - 0.520914119837879 w71
      - 0.694552159783839 w72 - 0.868190199729799 w73 - 0.41881589989694 w80
      - 0.62822384984541 w81 - 0.83763179979388 w82 - 1.04703974974235 w83
      - 1.18073867163253 w90 - 1.77110800744879 w91 - 2.36147734326505 w92
      - 2.95184667908132 w93 + b10  = 1
 c34: - 0.381294964028777 w00 - 0.571942446043166 w01 - 0.762589928057554 w02
      - 0.953237410071943 w03 - 0.0278473850133376 w10 - 0.0417710775200065 w11
      - 0.0556947700266753 w12 - 0.0696184625333441 w13
      - 0.0219328961609473 w20 - 0.032899344241421 w21 - 0.0438657923218947 w22
      - 0.0548322404023684 w23 - 0.018705035971223 w30 - 0.0280575539568345 w31
      - 0.037410071942446 w32 - 0.0467625899280576 w33 - 0.0247841726618705 w40
      - 0.0371762589928058 w41 - 0.049568345323741 w42 - 0.0619604316546763 w43
      - 0.0126288777894882 w50 - 0.0189433166842322 w51
      - 0.0252577555789763 w52 - 0.0315721944737204 w53
      - 0.0293303818483675 w60 - 0.0439955727725512 w61
      - 0.0586607636967349 w62 - 0.0733259546209186 w63 - 0.396546762589928 w70
      - 0.594820143884892 w71 - 0.793093525179856 w72 - 0.99136690647482 w73
      - 0.0619604316546763 w80 - 0.0929406474820144 w81 - 0.123920863309353 w82
      - 0.154901079136691 w83 - 0.0187403952074635 w90 - 0.0281105928111953 w91
      - 0.037480790414927 w92 - 0.0468509880186588 w93 + b11  = 1
 c35: - 0.0367107195301028 w00 - 0.0550660792951542 w01
      - 0.0734214390602056 w02 - 0.091776798825257 w03 - 0.0484644184191432 w10
      - 0.0726966276287147 w11 - 0.0969288368382863 w12 - 0.121161046047858 w13
      - 0.0187262515706133 w20 - 0.0280893773559199 w21
      - 0.0374525031412265 w22 - 0.0468156289265331 w23 - 0.363289280469897 w30
      - 0.544933920704846 w31 - 0.726578560939794 w32 - 0.908223201174743 w33
      - 0.245465730047228 w40 - 0.368198595070842 w41 - 0.490931460094456 w42
      - 0.61366432511807 w43 - 0.908223201174743 w50 - 1.36233480176211 w51
      - 1.81644640234949 w52 - 2.27055800293686 w53 - 0.0205946304121257 w60
      - 0.0308919456181885 w61 - 0.0411892608242514 w62
      - 0.0514865760303142 w63 - 0.0608728687114439 w70
      - 0.0913093030671658 w71 - 0.121745737422888 w72 - 0.15218217177861 w73
      - 0.104875658334266 w80 - 0.157313487501399 w81 - 0.209751316668532 w82
      - 0.262189145835665 w83 - 0.0252004217862026 w90 - 0.037800632679304 w91
      - 0.0504008435724053 w92 - 0.0630010544655066 w93 + b12  = 1
 c36: - 0.086984126984127 w00 - 0.13047619047619 w01 - 0.173968253968254 w02
      - 0.217460317460317 w03 - 0.0392343774960426 w10 - 0.058851566244064 w11
      - 0.0784687549920853 w12 - 0.0980859437401066 w13
      - 0.0272620308983945 w20 - 0.0408930463475918 w21
      - 0.0545240617967891 w22 - 0.0681550772459863 w23 - 0.313015873015873 w30
      - 0.469523809523809 w31 - 0.626031746031746 w32 - 0.782539682539682 w33
      - 0.48183342250758 w40 - 0.72275013376137 w41 - 0.96366684501516 w42
      - 1.20458355626895 w43 - 0.0653706929926442 w50 - 0.0980560394889663 w51
      - 0.130741385985288 w52 - 0.163426732481611 w53 - 0.0319785045512115 w60
      - 0.0479677568268172 w61 - 0.063957009102423 w62 - 0.0799462613780287 w63
      - 0.103084554334554 w70 - 0.154626831501832 w71 - 0.206169108669109 w72
      - 0.257711385836386 w73 - 0.0938362682782814 w80 - 0.140754402417422 w81
      - 0.187672536556563 w82 - 0.234590670695703 w83 - 0.0257711385836386 w90
      - 0.0386567078754579 w91 - 0.0515422771672772 w92
      - 0.0644278464590965 w93 + b13  = 1
 c37: - 0.0586345381526104 w00 - 0.0879518072289157 w01 - 0.117269076305221 w02
      - 0.146586345381526 w03 - 0.0958449181340748 w10 - 0.143767377201112 w11
      - 0.19168983626815 w12 - 0.239612295335187 w13 - 0.0281896818041396 w20
      - 0.0422845227062095 w21 - 0.0563793636082793 w22
      - 0.0704742045103491 w23 - 0.34136546184739 w30 - 0.512048192771084 w31
      - 0.682730923694779 w32 - 0.853413654618474 w33 - 0.30389852091292 w40
      - 0.45584778136938 w41 - 0.60779704182584 w42 - 0.7597463022823 w43
      - 2.93172690763052 w50 - 4.39759036144578 w51 - 5.86345381526104 w52
      - 7.3293172690763 w53 - 0.0312668490776154 w60 - 0.046900273616423 w61
      - 0.0625336981552307 w62 - 0.0781671226940384 w63 - 0.117269076305221 w70
      - 0.175903614457831 w71 - 0.234538152610442 w72 - 0.293172690763052 w73
      - 0.276885319053994 w80 - 0.415327978580991 w81 - 0.553770638107988 w82
      - 0.692213297634984 w83 - 0.0414982160114229 w90 - 0.0622473240171343 w91
      - 0.0829964320228457 w92 - 0.103745540028557 w93 + b14  = 1
 c38: - 0.311379129522811 w00 - 0.467068694284216 w01 - 0.622758259045621 w02
      - 0.778447823807027 w03 - 0.290735209333453 w10 - 0.43610281400018 w11
      - 0.581470418666906 w12 - 0.726838023333633 w13 - 1.92055010545091 w20
      - 2.88082515817637 w21 - 3.84110021090183 w22 - 4.80137526362728 w23
      - 0.0886208704771893 w30 - 0.132931305715784 w31 - 0.177241740954379 w32
      - 0.221552176192973 w33 - 0.0982873980002895 w40 - 0.147431097000434 w41
      - 0.196574796000579 w42 - 0.245718495000724 w43 - 0.0907294360161293 w50
      - 0.136094154024194 w51 - 0.181458872032259 w52 - 0.226823590040323 w53
      - 1.19056725994016 w60 - 1.78585088991024 w61 - 2.38113451988032 w62
      - 2.9764181498504 w63 - 0.24822204193092 w70 - 0.37233306289638 w71
      - 0.49644408386184 w72 - 0.6205551048273 w73 - 0.184125517457505 w80
      - 0.276188276186258 w81 - 0.368251034915011 w82 - 0.460313793643763 w83
      - 0.773868718961103 w90 - 1.16080307844165 w91 - 1.54773743792221 w92
      - 1.93467179740276 w93 + b15  = 1
 c39: - 0.296636085626911 w00 - 0.444954128440367 w01 - 0.593272171253823 w02
      - 0.741590214067278 w03 - 0.0664873985025836 w10 - 0.0997310977538753 w11
      - 0.132974797005167 w12 - 0.166218496256459 w13 - 0.0975320981925059 w20
      - 0.146298147288759 w21 - 0.195064196385012 w22 - 0.243830245481265 w23
      - 0.103363914373089 w30 - 0.155045871559633 w31 - 0.206727828746177 w32
      - 0.258409785932722 w33 - 0.12532874617737 w40 - 0.187993119266055 w41
      - 0.25065749235474 w42 - 0.313321865443425 w43 - 0.0549386284613129 w50
      - 0.0824079426919693 w51 - 0.109877256922626 w52 - 0.137346571153282 w53
      - 0.119077193517691 w60 - 0.178615790276537 w61 - 0.238154387035382 w62
      - 0.297692983794228 w63 - 0.162500805416363 w70 - 0.243751208124545 w71
      - 0.325001610832726 w72 - 0.406252013540908 w73 - 0.102728480473254 w80
      - 0.154092720709881 w81 - 0.205456960946508 w82 - 0.256821201183135 w83
      - 0.0602180161813189 w90 - 0.0903270242719784 w91 - 0.120436032362638 w92
      - 0.150545040453297 w93 + b16  = 1
 c40: - 0.18910741301059 w00 - 0.283661119515885 w01 - 0.37821482602118 w02
      - 0.472768532526475 w03 - 1.35884398833383 w10 - 2.03826598250074 w11
      - 2.71768797666765 w12 - 3.39710997083457 w13 - 0.119283137437449 w20
      - 0.178924706156174 w21 - 0.238566274874898 w22 - 0.298207843593623 w23
      - 0.21089258698941 w30 - 0.316338880484115 w31 - 0.42178517397882 w32
      - 0.527231467473525 w33 - 0.225312592937404 w40 - 0.337968889406106 w41
      - 0.450625185874808 w42 - 0.56328148234351 w43 - 0.527231467473525 w50
      - 0.790847201210287 w51 - 1.05446293494705 w52 - 1.31807866868381 w53
      - 0.128593040847201 w60 - 0.192889561270802 w61 - 0.257186081694402 w62
      - 0.321482602118003 w63 - 0.430744662968566 w70 - 0.646116994452849 w71
      - 0.861489325937132 w72 - 1.07686165742142 w73 - 1.16644129972019 w80
      - 1.74966194958028 w81 - 2.33288259944038 w82 - 2.91610324930047 w83
      - 0.273460304706185 w90 - 0.410190457059278 w91 - 0.54692060941237 w92
      - 0.683650761765463 w93 + b17  = 1
 c41: - 0.3455525606469 w00 - 0.51832884097035 w01 - 0.691105121293801 w02
      - 0.863881401617251 w03 - 0.0396149927642871 w10 - 0.0594224891464306 w11
      - 0.0792299855285742 w12 - 0.0990374819107177 w13
      - 0.0506542940861204 w20 - 0.0759814411291805 w21 - 0.101308588172241 w22
      - 0.126635735215301 w23 - 0.0544474393530997 w30 - 0.0816711590296496 w31
      - 0.108894878706199 w32 - 0.136118598382749 w33 - 0.0707927152643751 w40
      - 0.106189072896563 w41 - 0.14158543052875 w42 - 0.176981788160938 w43
      - 0.0286072201847024 w50 - 0.0429108302770536 w51
      - 0.0572144403694048 w52 - 0.071518050461756 w53 - 0.0654799411357166 w60
      - 0.0982199117035748 w61 - 0.130959882271433 w62 - 0.163699852839291 w63
      - 0.143036100923512 w70 - 0.214554151385268 w71 - 0.286072201847024 w72
      - 0.35759025230878 w73 - 0.0707927152643751 w80 - 0.106189072896563 w81
      - 0.14158543052875 w82 - 0.176981788160938 w83 - 0.0329252911559782 w90
      - 0.0493879367339673 w91 - 0.0658505823119565 w92
      - 0.0823132278899456 w93 + b18  = 1
 c42: - 0.0596491228070175 w00 - 0.0894736842105263 w01 - 0.119298245614035 w02
      - 0.149122807017544 w03 - 0.0997580157289776 w10 - 0.149637023593466 w11
      - 0.199516031457955 w12 - 0.249395039322444 w13 - 0.0300725827041617 w20
      - 0.0451088740562425 w21 - 0.0601451654083233 w22
      - 0.0751814567604041 w23 - 0.340350877192982 w30 - 0.510526315789474 w31
      - 0.680701754385965 w32 - 0.850877192982456 w33 - 0.289298245614035 w40
      - 0.433947368421053 w41 - 0.57859649122807 w42 - 0.723245614035088 w43
      - 11.5719298245614 w50 - 17.3578947368421 w51 - 23.1438596491228 w52
      - 28.9298245614035 w53 - 0.0331384015594542 w60 - 0.0497076023391813 w61
      - 0.0662768031189084 w62 - 0.0828460038986355 w63 - 0.113673180987833 w70
      - 0.17050977148175 w71 - 0.227346361975666 w72 - 0.284182952469583 w73
      - 0.249395039322444 w80 - 0.374092558983666 w81 - 0.498790078644888 w82
      - 0.62348759830611 w83 - 0.0444732122388986 w90 - 0.0667098183583478 w91
      - 0.0889464244777971 w92 - 0.111183030597246 w93 + b19  = 1
 c43: x1 - 0.05 zeta0 - 0.05 zeta1 - 0.05 zeta2 - 0.05 zeta3 - 0.05 zeta4
      - 0.05 zeta5 - 0.05 zeta6 - 0.05 zeta7 - 0.05 zeta8 - 0.05 zeta9
      - 0.05 zeta10 - 0.05 zeta11 - 0.05 zeta12 - 0.05 zeta13 - 0.05 zeta14
      - 0.05 zeta15 - 0.05 zeta16 - 0.05 zeta17 - 0.05 zeta18 - 0.05 zeta19
      >= 0
 q1:  [ b0 * zeta0 ] >= 1
 q2:  [ b1 * zeta1 ] >= 1
 q3:  [ b2 * zeta2 ] >= 1
 q4:  [ b3 * zeta3 ] >= 1
 q5:  [ b4 * zeta4 ] >= 1
 q6:  [ b5 * zeta5 ] >= 1
 q7:  [ b6 * zeta6 ] >= 1
 q8:  [ b7 * zeta7 ] >= 1
 q9:  [ b8 * zeta8 ] >= 1
 q10: [ b9 * zeta9 ] >= 1
 q11: [ b10 * zeta10 ] >= 1
 q12: [ b11 * zeta11 ] >= 1
 q13: [ b12 * zeta12 ] >= 1
 q14: [ b13 * zeta13 ] >= 1
 q15: [ b14 * zeta14 ] >= 1
 q16: [ b15 * zeta15 ] >= 1
 q17: [ b16 * zeta16 ] >= 1
 q18: [ b17 * zeta17 ] >= 1
 q19: [ b18 * zeta18 ] >= 1
 q20: [ b19 * zeta19 ] >= 1
Bounds
 0 <= x1 <= 1
 0 <= w00 <= 1
 0 <= w01 <= 1
 0 <= w02 <= 1
 0 <= w03 <= 1
 0 <= w10 <= 1
 0 <= w11 <= 1
 0 <= w12 <= 1
 0 <= w13 <= 1
 0 <= w20 <= 1
 0 <= w21 <= 1
 0 <= w22 <= 1
 0 <= w23 <= 1
 0 <= w30 <= 1
 0 <= w31 <= 1
 0 <= w32 <= 1
 0 <= w33 <= 1
 0 <= w40 <= 1
 0 <= w41 <= 1
 0 <= w42 <= 1
 0 <= w43 <= 1
 0 <= w50 <= 1
 0 <= w51 <= 1
 0 <= w52 <= 1
 0 <= w53 <= 1
 0 <= w60 <= 1
 0 <= w61 <= 1
 0 <= w62 <= 1
 0 <= w63 <= 1
 0 <= w70 <= 1
 0 <= w71 <= 1
 0 <= w72 <= 1
 0 <= w73 <= 1
 0 <= w80 <= 1
 0 <= w81 <= 1
 0 <= w82 <= 1
 0 <= w83 <= 1
 0 <= w90 <= 1
 0 <= w91 <= 1
 0 <= w92 <= 1
 0 <= w93 <= 1
 0 <= y0 <= 1
 0 <= y1 <= 1
 0 <= y2 <= 1
 0 <= y3 <= 1
 0 <= y4 <= 1
 0 <= y5 <= 1
 0 <= y6 <= 1
 0 <= y7 <= 1
 0 <= y8 <= 1
 0 <= y9 <= 1
      b0 >= 1
      b1 >= 1
      b2 >= 1
      b3 >= 1
      b4 >= 1
      b5 >= 1
      b6 >= 1
      b7 >= 1
      b8 >= 1
      b9 >= 1
      b10 >= 1
      b11 >= 1
      b12 >= 1
      b13 >= 1
      b14 >= 1
      b15 >= 1
      b16 >= 1
      b17 >= 1
      b18 >= 1
      b19 >= 1
 0 <= zeta0 <= 1
 0 <= zeta1 <= 1
 0 <= zeta2 <= 1
 0 <= zeta3 <= 1
 0 <= zeta4 <= 1
 0 <= zeta5 <= 1
 0 <= zeta6 <= 1
 0 <= zeta7 <= 1
 0 <= zeta8 <= 1
 0 <= zeta9 <= 1
 0 <= zeta10 <= 1
 0 <= zeta11 <= 1
 0 <= zeta12 <= 1
 0 <= zeta13 <= 1
 0 <= zeta14 <= 1
 0 <= zeta15 <= 1
 0 <= zeta16 <= 1
 0 <= zeta17 <= 1
 0 <= zeta18 <= 1
 0 <= zeta19 <= 1
Binaries
 w00  w01  w02  w03  w10  w11  w12  w13  w20  w21  w22  w23  w30  w31  w32 
 w33  w40  w41  w42  w43  w50  w51  w52  w53  w60  w61  w62  w63  w70  w71 
 w72  w73  w80  w81  w82  w83  w90  w91  w92  w93  y0  y1  y2  y3  y4  y5  y6 
 y7  y8  y9 
End
