\ENCODING=ISO-8859-1
\Problem name: ilog.cplex

Maximize
 obj: x1
Subject To
 c1:  x2 + x3 + x4 + x5 + x6 + x7 + x8 + x9 + x10 + x11 + x12 + x13 + x14 + x15
      + x16 + x17 + x18 + x19 + x20 + x21 + x22 + x23 + x24 + x25 + x26 + x27
      + x28 + x29 + x30 + x31 <= 2
 c2:  x32 + x33 + x34 + x35 + x36 + x37 + x38 + x39 + x40 + x41 + x42 + x43
      + x44 + x45 + x46 + x47 + x48 + x49 + x50 + x51 + x52 + x53 + x54 + x55
      + x56 + x57 + x58 + x59 + x60 + x61 <= 100
 c3:  - 10 x2 + x32 >= 0
 c4:  - 10 x3 + x33 >= 0
 c5:  - 10 x4 + x34 >= 0
 c6:  - 10 x5 + x35 >= 0
 c7:  - 10 x6 + x36 >= 0
 c8:  - 10 x7 + x37 >= 0
 c9:  - 10 x8 + x38 >= 0
 c10: - 10 x9 + x39 >= 0
 c11: - 10 x10 + x40 >= 0
 c12: - 10 x11 + x41 >= 0
 c13: - 10 x12 + x42 >= 0
 c14: - 10 x13 + x43 >= 0
 c15: - 10 x14 + x44 >= 0
 c16: - 10 x15 + x45 >= 0
 c17: - 10 x16 + x46 >= 0
 c18: - 10 x17 + x47 >= 0
 c19: - 10 x18 + x48 >= 0
 c20: - 10 x19 + x49 >= 0
 c21: - 10 x20 + x50 >= 0
 c22: - 10 x21 + x51 >= 0
 c23: - 10 x22 + x52 >= 0
 c24: - 10 x23 + x53 >= 0
 c25: - 10 x24 + x54 >= 0
 c26: - 10 x25 + x55 >= 0
 c27: - 10 x26 + x56 >= 0
 c28: - 10 x27 + x57 >= 0
 c29: - 10 x28 + x58 >= 0
 c30: - 10 x29 + x59 >= 0
 c31: - 10 x30 + x60 >= 0
 c32: - 10 x31 + x61 >= 0
 c33: - 100 x2 + x32 <= 0
 c34: - 100 x3 + x33 <= 0
 c35: - 100 x4 + x34 <= 0
 c36: - 100 x5 + x35 <= 0
 c37: - 100 x6 + x36 <= 0
 c38: - 100 x7 + x37 <= 0
 c39: - 100 x8 + x38 <= 0
 c40: - 100 x9 + x39 <= 0
 c41: - 100 x10 + x40 <= 0
 c42: - 100 x11 + x41 <= 0
 c43: - 100 x12 + x42 <= 0
 c44: - 100 x13 + x43 <= 0
 c45: - 100 x14 + x44 <= 0
 c46: - 100 x15 + x45 <= 0
 c47: - 100 x16 + x46 <= 0
 c48: - 100 x17 + x47 <= 0
 c49: - 100 x18 + x48 <= 0
 c50: - 100 x19 + x49 <= 0
 c51: - 100 x20 + x50 <= 0
 c52: - 100 x21 + x51 <= 0
 c53: - 100 x22 + x52 <= 0
 c54: - 100 x23 + x53 <= 0
 c55: - 100 x24 + x54 <= 0
 c56: - 100 x25 + x55 <= 0
 c57: - 100 x26 + x56 <= 0
 c58: - 100 x27 + x57 <= 0
 c59: - 100 x28 + x58 <= 0
 c60: - 100 x29 + x59 <= 0
 c61: - 100 x30 + x60 <= 0
 c62: - 100 x31 + x61 <= 0
Bounds
 0 <= x1 <= 1
 0 <= x2 <= 1
 0 <= x3 <= 1
 0 <= x4 <= 1
 0 <= x5 <= 1
 0 <= x6 <= 1
 0 <= x7 <= 1
 0 <= x8 <= 1
 0 <= x9 <= 1
 0 <= x10 <= 1
 0 <= x11 <= 1
 0 <= x12 <= 1
 0 <= x13 <= 1
 0 <= x14 <= 1
 0 <= x15 <= 1
 0 <= x16 <= 1
 0 <= x17 <= 1
 0 <= x18 <= 1
 0 <= x19 <= 1
 0 <= x20 <= 1
 0 <= x21 <= 1
 0 <= x22 <= 1
 0 <= x23 <= 1
 0 <= x24 <= 1
 0 <= x25 <= 1
 0 <= x26 <= 1
 0 <= x27 <= 1
 0 <= x28 <= 1
 0 <= x29 <= 1
 0 <= x30 <= 1
 0 <= x31 <= 1
 0 <= x32 <= 100
 0 <= x33 <= 100
 0 <= x34 <= 100
 0 <= x35 <= 100
 0 <= x36 <= 100
 0 <= x37 <= 100
 0 <= x38 <= 100
 0 <= x39 <= 100
 0 <= x40 <= 100
 0 <= x41 <= 100
 0 <= x42 <= 100
 0 <= x43 <= 100
 0 <= x44 <= 100
 0 <= x45 <= 100
 0 <= x46 <= 100
 0 <= x47 <= 100
 0 <= x48 <= 100
 0 <= x49 <= 100
 0 <= x50 <= 100
 0 <= x51 <= 100
 0 <= x52 <= 100
 0 <= x53 <= 100
 0 <= x54 <= 100
 0 <= x55 <= 100
 0 <= x56 <= 100
 0 <= x57 <= 100
 0 <= x58 <= 100
 0 <= x59 <= 100
 0 <= x60 <= 100
 0 <= x61 <= 100
Binaries
 x2  x3  x4  x5  x6  x7  x8  x9  x10  x11  x12  x13  x14  x15  x16  x17  x18 
 x19  x20  x21  x22  x23  x24  x25  x26  x27  x28  x29  x30  x31 
End
